34 22
10 539
12 451
20 277
11 916
4 469
14 186
1 680
1 805
9 278
7 192
7 344
2 814
5 81
14 536
17 727
6 733
19 630
10 456
1 997
19 162
6 60
12 306
6 649
4 19
9 45
18 937
3 679
19 995
4 983
5 198
8 157
7 148
3 927
4 784
